1616.04
0 15 5 1 49 3 12 7 8 4 2 0
0 16 23 9 10 11 14 13 17 0
0 25 18 24 22 21 20 29 27 19 72 26 0
0 36 71 65 31 39 32 33 28 34 35 0
0 43 41 42 37 45 38 55 44 40 6 0
0 48 47 57 54 52 46 53 50 51 0
0 58 59 60 69 61 64 56 63 73 62 68 0
0 30 74 70 66 67 75 0
